Solving original (integer) problem with strategy gdp.hull...
--- Job model.gms Start 02/16/26 00:58:07 52.2.0 d8e408be LEX-LEG x86 64bit/Linux
--- Applying:
    /package/gams/52.2/gmsprmun.txt
--- GAMS Parameters defined
    Input /local/scratch/a/sgusev/repos/k_means/data/gams_scip_gdp.hull/no_mode/2026-02-16_00-58-07/original/model.gms
    Output /local/scratch/a/sgusev/repos/k_means/data/gams_scip_gdp.hull/no_mode/2026-02-16_00-58-07/original/output.lst
    ScrDir /local/scratch/a/sgusev/repos/k_means/data/gams_scip_gdp.hull/no_mode/2026-02-16_00-58-07/original/225a/
    SysDir /package/gams/52.2/
    CurDir /local/scratch/a/sgusev/repos/k_means/data/gams_scip_gdp.hull/no_mode/2026-02-16_00-58-07/original/
    LogOption 3
    AppendLog 1
Licensee: David Bernal / SECQUOIA Research Group         G251008+0003Ac-GEN
          Purdue University, Davidson School of Chemical EngineeringDCE4838
          225a/gamslice.dat
          5a82958a-fbca-4a23
          node:66820903 mem:995 cores:48 ipport:36551 v:2                  
          Evaluation license: Not for commercial or production use
          The time-limited license stops working on : Jun 30, 2027
System information: 48 physical cores and 995 Gb physical memory detected
GAMS 52.2.0   Copyright (C) 1987-2025 GAMS Development. All rights reserved
--- Starting compilation
--- model.gms(3637) 2 Mb
--- $echo File /local/scratch/a/sgusev/repos/k_means/data/gams_scip_gdp.hull/no_mode/2026-02-16_00-58-07/original/scip.opt
--- model.gms(5319) 2 Mb
--- Starting execution: elapsed 0:00:00.019
--- model.gms(3647) 3 Mb
--- Generating MINLP model GAMS_MODEL
--- model.gms(3651) 6 Mb
---   1,104 rows  511 columns  2,667 non-zeroes
---   2,320 nl-code  280 nl-non-zeroes
---   40 discrete-columns
--- Range statistics (absolute non-zero finite values)
--- RHS       [min, max] : [ 1.699E-05, 1.000E+00] - Zero values observed as well
--- Bound     [min, max] : [ 1.000E+00, 1.000E+02] - Zero values observed as well
--- Matrix    [min, max] : [ 8.325E-02, 1.000E+02]
--- model.gms(3651) 4 Mb
--- Executing SCIP (Solvelink=5): elapsed 0:00:00.026

SCIP             52.2.0 d8e408be Dec 8, 2025           LEG x86 64bit/Linux    
SCIP version 9.2.4 (a94f778ac8)
Copyright (c) 2002-2025 Zuse Institute Berlin (ZIB)

External libraries: 
  CPLEX 22.1.2.0       Linear Programming Solver developed by IBM (www.cplex.com)
  CppAD 20180000.0     Algorithmic Differentiation of C++ algorithms developed by B. Bell (github.com/coin-or/CppAD)
  PaPILO 2.4.4         parallel presolve for integer and linear optimization (github.com/scipopt/papilo) (built with TBB) [GitHash: 7c826d50]
  Nauty 2.8.9          Computing Graph Automorphism Groups by Brendan D. McKay (users.cecs.anu.edu.au/~bdm/nauty)
  sassy 1.1            Symmetry preprocessor by Markus Anders (github.com/markusa4/sassy)
  Ipopt 3.14.19        Interior Point Optimizer developed by A. Waechter et.al. (github.com/coin-or/Ipopt)

reading option file /local/scratch/a/sgusev/repos/k_means/data/gams_scip_gdp.hull/no_mode/2026-02-16_00-58-07/original/scip.opt
non-default parameter settings:
limits/time = 300
limits/gap = 1e-06
limits/absgap = 1e-10
lp/threads = 1
misc/printreason = FALSE
numerics/dualfeastol = 1e-06
parallel/maxnthreads = 1
nlpi/ipopt/linear_solver = "ma27"
nlpi/ipopt/linear_system_scaling = "mc19"

original problem has 510 variables (40 bin, 0 int, 470 cont) and 1103 constraints

all 1 solutions given by solution candidate storage are infeasible

presolving:
(round 1, fast)       10 del vars, 0 del conss, 0 add conss, 0 chg bounds, 0 chg sides, 0 chg coeffs, 0 upgd conss, 0 impls, 10 clqs
(round 2, fast)       10 del vars, 0 del conss, 0 add conss, 0 chg bounds, 10 chg sides, 0 chg coeffs, 0 upgd conss, 0 impls, 10 clqs
(round 3, exhaustive) 10 del vars, 0 del conss, 0 add conss, 0 chg bounds, 10 chg sides, 0 chg coeffs, 850 upgd conss, 0 impls, 10 clqs
   (0.1s) probing cycle finished: starting next cycle
   (0.1s) symmetry computation started: requiring (bin +, int +, cont +), (fixed: bin -, int -, cont -)
   (0.1s) no symmetry present (symcode time: 0.00)
presolving (4 rounds: 4 fast, 2 medium, 2 exhaustive):
 10 deleted vars, 0 deleted constraints, 0 added constraints, 0 tightened bounds, 0 added holes, 10 changed sides, 0 changed coefficients
 2160 implications, 10 cliques
presolved problem has 500 variables (40 bin, 0 int, 0 impl, 460 cont) and 1103 constraints
    840 constraints of type <varbound>
     10 constraints of type <setppc>
    213 constraints of type <linear>
     40 constraints of type <nonlinear>
Presolving Time: 0.07

 time | node  | left  |LP iter|LP it/n|mem/heur|mdpt |vars |cons |rows |cuts |sepa|confs|strbr|  dualbound   | primalbound  |  gap   | compl. 
  0.2s|     1 |     0 |   724 |     - |    20M |   0 |1740 |1103 |2701 |   0 |  0 |   0 |   0 | 0.000000e+00 |      --      |    Inf | unknown
o 0.2s|     1 |     0 |   780 |     - |feaspump|   0 |1740 |1103 |2701 |   0 |  0 |   0 |   0 | 0.000000e+00 | 7.570048e+00 |    Inf | unknown
  0.2s|     1 |     0 |   896 |     - |    21M |   0 |1740 |1103 |2748 |  47 |  1 |   0 |   0 | 0.000000e+00 | 7.570048e+00 |    Inf | unknown
  0.2s|     1 |     0 |   896 |     - |    21M |   0 |1740 |1103 |2738 |  47 |  1 |   0 |   0 | 0.000000e+00 | 7.570048e+00 |    Inf | unknown
  0.2s|     1 |     0 |   988 |     - |    22M |   0 |1740 |1103 |2796 | 105 |  2 |   0 |   0 | 0.000000e+00 | 7.570048e+00 |    Inf | unknown
  0.3s|     1 |     0 |  1050 |     - |    22M |   0 |1740 |1103 |2844 | 153 |  3 |   0 |   0 | 0.000000e+00 | 7.570048e+00 |    Inf | unknown
  0.3s|     1 |     0 |  1117 |     - |    23M |   0 |1740 |1103 |2890 | 199 |  4 |   0 |   0 | 0.000000e+00 | 7.570048e+00 |    Inf | unknown
  0.3s|     1 |     0 |  1231 |     - |    23M |   0 |1740 |1103 |2932 | 241 |  5 |   0 |   0 | 0.000000e+00 | 7.570048e+00 |    Inf | unknown
  0.3s|     1 |     0 |  1281 |     - |    24M |   0 |1740 |1103 |2977 | 286 |  6 |   0 |   0 | 0.000000e+00 | 7.570048e+00 |    Inf | unknown
  0.3s|     1 |     0 |  1335 |     - |    24M |   0 |1740 |1103 |3022 | 331 |  7 |   0 |   0 | 0.000000e+00 | 7.570048e+00 |    Inf | unknown
  0.3s|     1 |     0 |  1366 |     - |    24M |   0 |1740 |1103 |3062 | 371 |  8 |   0 |   0 | 0.000000e+00 | 7.570048e+00 |    Inf | unknown
  0.3s|     1 |     0 |  1394 |     - |    24M |   0 |1740 |1103 |3105 | 414 |  9 |   0 |   0 | 0.000000e+00 | 7.570048e+00 |    Inf | unknown
  0.3s|     1 |     0 |  1415 |     - |    24M |   0 |1740 |1103 |1866 | 445 | 10 |   0 |   0 | 0.000000e+00 | 7.570048e+00 |    Inf | unknown
  0.3s|     1 |     0 |  1430 |     - |    24M |   0 |1740 |1103 |1889 | 468 | 11 |   0 |   0 | 0.000000e+00 | 7.570048e+00 |    Inf | unknown
  0.3s|     1 |     0 |  1442 |     - |    24M |   0 |1740 |1103 |1903 | 482 | 12 |   0 |   0 | 0.000000e+00 | 7.570048e+00 |    Inf | unknown
 time | node  | left  |LP iter|LP it/n|mem/heur|mdpt |vars |cons |rows |cuts |sepa|confs|strbr|  dualbound   | primalbound  |  gap   | compl. 
  0.3s|     1 |     0 |  1448 |     - |    24M |   0 |1740 |1103 |1911 | 490 | 13 |   0 |   0 | 0.000000e+00 | 7.570048e+00 |    Inf | unknown
  0.3s|     1 |     0 |  1450 |     - |    24M |   0 |1740 |1103 |1914 | 493 | 14 |   0 |   0 | 0.000000e+00 | 7.570048e+00 |    Inf | unknown
  0.3s|     1 |     0 |  1452 |     - |    24M |   0 |1740 |1103 |1917 | 496 | 15 |   0 |   0 | 0.000000e+00 | 7.570048e+00 |    Inf | unknown
  0.3s|     1 |     0 |  1454 |     - |    24M |   0 |1740 |1103 |1695 | 499 | 16 |   0 |   0 | 0.000000e+00 | 7.570048e+00 |    Inf | unknown
  1.2s|     1 |     0 | 11312 |     - |    24M |   0 |1740 |1093 |1695 | 499 | 16 |   0 |   0 | 0.000000e+00 | 7.570048e+00 |    Inf | unknown
  1.2s|     1 |     0 | 11314 |     - |    24M |   0 |1740 |1093 |1615 | 502 | 17 |   0 |   0 | 0.000000e+00 | 7.570048e+00 |    Inf | unknown
d 1.5s|     1 |     0 | 11314 |     - |    mpec|   0 |1740 |1093 |1615 | 502 | 18 |   0 |   0 | 0.000000e+00 | 6.948856e+00 |    Inf | unknown
  1.5s|     1 |     0 | 11314 |     - |    26M |   0 |1740 |1093 |1615 | 502 | 18 |   0 |   0 | 0.000000e+00 | 6.948856e+00 |    Inf | unknown
  1.5s|     1 |     0 | 11328 |     - |    26M |   0 |1740 |1093 |1625 | 512 | 19 |   0 |   0 | 0.000000e+00 | 6.948856e+00 |    Inf | unknown
  1.5s|     1 |     2 | 11328 |     - |    27M |   0 |1740 |1093 |1625 | 512 | 20 |   0 |   0 | 0.000000e+00 | 6.948856e+00 |    Inf | unknown
L 4.2s|    91 |    92 | 25989 | 274.5 |    alns|  20 |1740 |1093 |1983 |  11k|  3 |   0 |   0 | 0.000000e+00 | 6.402163e+00 |    Inf | unknown
L 4.2s|    91 |    92 | 25989 | 274.5 |    alns|  20 |1740 |1093 |1983 |  11k|  3 |   0 |   0 | 0.000000e+00 | 6.402159e+00 |    Inf | unknown
d 4.3s|    92 |    93 | 26144 | 273.2 |nlpdivin|  21 |1740 |1093 |2164 |   0 |  7 |   0 |   0 | 0.000000e+00 | 4.214977e+00 |    Inf | unknown
  4.5s|   100 |   101 | 27266 | 262.5 |    33M |  21 |1740 |1093 |1762 |  12k|  2 |   0 |   0 | 0.000000e+00 | 4.214977e+00 |    Inf | unknown
L 8.0s|   192 |   191 | 44360 | 225.5 |    gins|  21 |1740 |1093 |1872 |  25k| 12 |   0 |  10 | 0.000000e+00 | 4.027635e+00 |    Inf | unknown
 time | node  | left  |LP iter|LP it/n|mem/heur|mdpt |vars |cons |rows |cuts |sepa|confs|strbr|  dualbound   | primalbound  |  gap   | compl. 
  8.3s|   200 |   199 | 46011 | 224.8 |    38M |  21 |1740 |1093 |1737 |  26k|  4 |   0 |  10 | 0.000000e+00 | 4.027635e+00 |    Inf | unknown
L11.9s|   292 |   283 | 67715 | 228.3 |    gins|  21 |1740 |1093 |1938 |  40k|  3 |   0 |  20 | 0.000000e+00 | 3.774198e+00 |    Inf | unknown
 12.2s|   300 |   289 | 69600 | 228.5 |    45M |  21 |1740 |1093 |1798 |  42k|  2 |   0 |  20 | 0.000000e+00 | 3.774198e+00 |    Inf | unknown
 16.1s|   400 |   383 | 93402 | 230.9 |    53M |  21 |1740 |1093 |1886 |  56k|  2 |   0 |  47 | 0.000000e+00 | 3.774198e+00 |    Inf | unknown
 20.0s|   500 |   479 |118067 | 234.0 |    58M |  25 |1740 |1093 |2106 |  72k| 10 |   0 |  63 | 0.000000e+00 | 3.774198e+00 |    Inf | unknown
L20.6s|   509 |   478 |119927 | 233.6 |    rins|  25 |1740 |1093 |2118 |  73k|  8 |   0 |  63 | 0.000000e+00 | 3.457102e+00 |    Inf |   1.62%
 23.5s|   600 |   561 |138534 | 229.1 |    61M |  29 |1740 |1093 |1913 |  85k|  2 |   0 |  80 | 0.000000e+00 | 3.457102e+00 |    Inf |   1.69%
 26.7s|   700 |   637 |159625 | 226.5 |    68M |  29 |1740 |1093 |1979 |  98k|  6 |   0 |  89 | 0.000000e+00 | 3.457102e+00 |    Inf |   1.83%
 30.4s|   800 |   725 |181799 | 225.9 |    77M |  29 |1740 |1093 |1881 | 112k|  2 |   0 | 100 | 0.000000e+00 | 3.457102e+00 |    Inf |   2.16%
 34.0s|   900 |   811 |199788 | 220.8 |    80M |  29 |1740 |1093 |2122 | 125k| 13 |   0 | 117 | 0.000000e+00 | 3.457102e+00 |    Inf |   2.36%
 37.7s|  1000 |   909 |220868 | 219.8 |    85M |  29 |1740 |1093 |2024 | 139k|  6 |   0 | 126 | 0.000000e+00 | 3.457102e+00 |    Inf |   2.37%
 41.2s|  1100 |  1005 |242141 | 219.2 |    89M |  29 |1740 |1093 |2089 | 153k| 10 |   0 | 136 | 0.000000e+00 | 3.457102e+00 |    Inf |   2.37%
 44.4s|  1200 |  1087 |264656 | 219.7 |    92M |  29 |1740 |1093 |1849 | 166k|  2 |   0 | 149 | 0.000000e+00 | 3.457102e+00 |    Inf |   2.37%
 47.6s|  1300 |  1171 |285283 | 218.6 |    98M |  29 |1740 |1093 |1962 | 178k|  3 |   0 | 169 | 0.000000e+00 | 3.457102e+00 |    Inf |   2.41%
 51.2s|  1400 |  1263 |306553 | 218.2 |   103M |  29 |1740 |1093 |2058 | 192k|  2 |   0 | 194 | 0.000000e+00 | 3.457102e+00 |    Inf |   2.42%
 time | node  | left  |LP iter|LP it/n|mem/heur|mdpt |vars |cons |rows |cuts |sepa|confs|strbr|  dualbound   | primalbound  |  gap   | compl. 
 55.3s|  1500 |  1349 |335388 | 222.9 |   109M |  29 |1740 |1093 |2132 | 206k|  3 |   0 | 231 | 0.000000e+00 | 3.457102e+00 |    Inf |   2.42%
 58.6s|  1600 |  1431 |356609 | 222.2 |   113M |  29 |1740 |1093 |2060 | 219k|  2 |   0 | 246 | 0.000000e+00 | 3.457102e+00 |    Inf |   2.42%
 62.0s|  1700 |  1515 |379072 | 222.4 |   118M |  29 |1740 |1093 |2261 | 233k|  9 |   0 | 258 | 0.000000e+00 | 3.457102e+00 |    Inf |   2.42%
 65.0s|  1800 |  1605 |398223 | 220.6 |   123M |  29 |1740 |1093 |1912 | 244k|  2 |   0 | 274 | 0.000000e+00 | 3.457102e+00 |    Inf |   2.56%
 68.9s|  1900 |  1689 |419781 | 220.4 |   126M |  29 |1740 |1093 |1843 | 258k|  2 |   0 | 305 | 0.000000e+00 | 3.457102e+00 |    Inf |   2.82%
 71.6s|  2000 |  1761 |435774 | 217.4 |   129M |  29 |1740 |1093 |2012 | 267k|  2 |   0 | 322 | 0.000000e+00 | 3.457102e+00 |    Inf |   4.03%
L74.4s|  2074 |  1821 |447719 | 215.4 |crossove|  30 |1740 |1093 |2292 | 275k|  4 |   2 | 333 | 0.000000e+00 | 3.457102e+00 |    Inf |   4.03%
 75.5s|  2100 |  1843 |452938 | 215.2 |   132M |  31 |1740 |1093 |1884 | 278k|  4 |   2 | 344 | 0.000000e+00 | 3.457102e+00 |    Inf |   4.03%
 78.5s|  2200 |  1917 |470656 | 213.4 |   136M |  31 |1740 |1093 |2248 | 289k|  4 |   2 | 354 | 0.000000e+00 | 3.457102e+00 |    Inf |   4.08%
 81.5s|  2300 |  1973 |486061 | 210.9 |   139M |  31 |1740 |1093 |2120 | 300k|  4 |   2 | 370 | 0.000000e+00 | 3.457102e+00 |    Inf |   4.26%
 84.6s|  2400 |  2051 |505586 | 210.2 |   143M |  31 |1740 |1093 |2069 | 311k|  8 |   3 | 384 | 0.000000e+00 | 3.457102e+00 |    Inf |   4.32%
 87.4s|  2500 |  2117 |524151 | 209.2 |   146M |  31 |1740 |1093 |2018 | 322k|  3 |   3 | 410 | 0.000000e+00 | 3.457102e+00 |    Inf |   4.37%
 90.6s|  2600 |  2187 |545109 | 209.2 |   149M |  31 |1740 |1093 |2224 | 335k|  3 |   3 | 429 | 0.000000e+00 | 3.457102e+00 |    Inf |   4.37%
 92.9s|  2700 |  2235 |560589 | 207.2 |   152M |  31 |1740 |1093 |2127 | 344k|  3 |   3 | 436 | 1.234809e-07 | 3.457102e+00 |  Large |   4.41%
 95.9s|  2800 |  2305 |580486 | 206.9 |   155M |  31 |1740 |1093 |2166 | 355k|  3 |   3 | 454 | 2.222494e-07 | 3.457102e+00 |  Large |   4.44%
 time | node  | left  |LP iter|LP it/n|mem/heur|mdpt |vars |cons |rows |cuts |sepa|confs|strbr|  dualbound   | primalbound  |  gap   | compl. 
 98.6s|  2900 |  2363 |598948 | 206.2 |   159M |  31 |1740 |1093 |1931 | 367k|  2 |   5 | 475 | 4.403638e-07 | 3.457102e+00 |  Large |   4.81%
  102s|  3000 |  2413 |620322 | 206.4 |   163M |  31 |1740 |1093 |2190 | 379k|  9 |   6 | 490 | 5.983965e-06 | 3.457102e+00 |  Large |   4.92%
  105s|  3100 |  2473 |637163 | 205.2 |   167M |  31 |1740 |1093 |2142 | 390k|  3 |   6 | 501 | 3.503919e-03 | 3.457102e+00 |  Large |   4.94%
  108s|  3200 |  2525 |656228 | 204.7 |   169M |  31 |1740 |1093 |2070 | 402k|  2 |   6 | 538 | 4.070738e-02 | 3.457102e+00 |8392.57%|   5.01%
  111s|  3300 |  2591 |676177 | 204.6 |   176M |  34 |1740 |1093 |1946 | 413k|  5 |   6 | 550 | 4.070738e-02 | 3.457102e+00 |8392.57%|   5.12%
  114s|  3400 |  2661 |691615 | 203.1 |   179M |  34 |1740 |1093 |1682 | 424k|  2 |   6 | 551 | 4.718015e-02 | 3.457102e+00 |7227.45%|   5.55%
  117s|  3500 |  2727 |708248 | 202.0 |   182M |  34 |1740 |1093 |1843 | 435k|  2 |   6 | 552 | 6.005690e-02 | 3.457102e+00 |5656.38%|   6.56%
  119s|  3600 |  2787 |725898 | 201.3 |   187M |  34 |1740 |1093 |2093 | 448k| 11 |   6 | 562 | 6.038001e-02 | 3.457102e+00 |5625.57%|   6.58%
  122s|  3700 |  2827 |739992 | 199.7 |   188M |  34 |1740 |1093 |1961 | 458k|  6 |   7 | 571 | 1.029660e-01 | 3.457102e+00 |3257.52%|   6.61%
  125s|  3800 |  2885 |756816 | 198.9 |   192M |  34 |1740 |1093 |1801 | 471k|  2 |   7 | 573 | 1.029660e-01 | 3.457102e+00 |3257.52%|   6.72%
  127s|  3900 |  2945 |773926 | 198.2 |   197M |  34 |1740 |1093 |2108 | 481k|  2 |   7 | 580 | 1.033937e-01 | 3.457102e+00 |3243.63%|   7.10%
  130s|  4000 |  3003 |790771 | 197.4 |   200M |  34 |1740 |1093 |2114 | 492k|  3 |   8 | 582 | 1.095832e-01 | 3.457102e+00 |3054.77%|   7.40%
  133s|  4100 |  3061 |809619 | 197.2 |   204M |  34 |1740 |1093 |2264 | 503k|  2 |   8 | 598 | 1.101621e-01 | 3.457102e+00 |3038.20%|   7.41%
  136s|  4200 |  3105 |830400 | 197.5 |   208M |  34 |1740 |1093 |1752 | 514k|  2 |   8 | 610 | 1.153595e-01 | 3.457102e+00 |2896.81%|   7.50%
  138s|  4300 |  3157 |847822 | 196.9 |   212M |  34 |1740 |1093 |2362 | 524k|  9 |   8 | 616 | 1.153595e-01 | 3.457102e+00 |2896.81%|   8.03%
 time | node  | left  |LP iter|LP it/n|mem/heur|mdpt |vars |cons |rows |cuts |sepa|confs|strbr|  dualbound   | primalbound  |  gap   | compl. 
  141s|  4400 |  3223 |862913 | 195.9 |   215M |  34 |1740 |1093 |2401 | 533k| 11 |   8 | 625 | 1.221023e-01 | 3.457102e+00 |2731.32%|   8.07%
  144s|  4500 |  3263 |876608 | 194.6 |   217M |  34 |1740 |1093 |1964 | 542k|  2 |   8 | 637 | 1.221023e-01 | 3.457102e+00 |2731.32%|   8.15%
  147s|  4600 |  3325 |894199 | 194.2 |   220M |  34 |1740 |1093 |1938 | 553k|  2 |   8 | 657 | 1.221023e-01 | 3.457102e+00 |2731.32%|   8.23%
  150s|  4700 |  3397 |913023 | 194.0 |   225M |  34 |1740 |1093 |2128 | 565k|  7 |   8 | 663 | 1.327930e-01 | 3.457102e+00 |2503.38%|   8.27%
  152s|  4800 |  3475 |930078 | 193.5 |   229M |  34 |1740 |1093 |1982 | 577k|  2 |   8 | 666 | 1.327930e-01 | 3.457102e+00 |2503.38%|   8.36%
  155s|  4900 |  3549 |947619 | 193.2 |   236M |  34 |1740 |1093 |2123 | 588k| 12 |   8 | 667 | 1.327930e-01 | 3.457102e+00 |2503.38%|   8.37%
  159s|  5000 |  3633 |969581 | 193.7 |   241M |  34 |1740 |1093 |2205 | 604k|  9 |   8 | 674 | 1.327930e-01 | 3.457102e+00 |2503.38%|   8.39%
  162s|  5100 |  3695 |990046 | 193.9 |   244M |  34 |1740 |1093 |1898 | 614k|  2 |   8 | 680 | 1.542401e-01 | 3.457102e+00 |2141.38%|   8.40%
  165s|  5200 |  3757 |  1006k| 193.3 |   247M |  34 |1740 |1093 |1906 | 625k|  2 |   8 | 685 | 1.735627e-01 | 3.457102e+00 |1891.85%|   8.48%
  168s|  5300 |  3815 |  1020k| 192.4 |   252M |  34 |1740 |1093 |2231 | 635k| 11 |   8 | 691 | 1.764654e-01 | 3.457102e+00 |1859.08%|   8.57%
  170s|  5400 |  3875 |  1036k| 191.7 |   254M |  34 |1740 |1093 |2072 | 645k|  2 |   8 | 694 | 1.764654e-01 | 3.457102e+00 |1859.08%|   8.77%
  173s|  5500 |  3929 |  1051k| 191.0 |   257M |  34 |1740 |1093 |2003 | 655k|  2 |   8 | 700 | 1.764654e-01 | 3.457102e+00 |1859.08%|   8.82%
  176s|  5600 |  3989 |  1066k| 190.3 |   260M |  34 |1740 |1093 |2407 | 665k| 13 |   8 | 706 | 1.764654e-01 | 3.457102e+00 |1859.08%|   8.91%
  178s|  5700 |  4055 |  1082k| 189.8 |   262M |  34 |1740 |1093 |2279 | 676k|  8 |   8 | 710 | 1.781090e-01 | 3.457102e+00 |1841.00%|   8.93%
  181s|  5800 |  4113 |  1100k| 189.6 |   266M |  34 |1740 |1093 |2100 | 687k|  3 |   8 | 711 | 1.920298e-01 | 3.457102e+00 |1700.29%|   8.97%
 time | node  | left  |LP iter|LP it/n|mem/heur|mdpt |vars |cons |rows |cuts |sepa|confs|strbr|  dualbound   | primalbound  |  gap   | compl. 
  183s|  5900 |  4167 |  1115k| 188.8 |   269M |  34 |1740 |1093 |2032 | 697k|  2 |   8 | 712 | 2.249452e-01 | 3.457102e+00 |1436.86%|   9.09%
  186s|  6000 |  4229 |  1131k| 188.3 |   275M |  37 |1740 |1093 |2004 | 706k|  4 |   8 | 712 | 2.465754e-01 | 3.457102e+00 |1302.05%|   9.15%
  189s|  6100 |  4267 |  1146k| 187.7 |   276M |  37 |1740 |1093 |2322 | 715k|  2 |   8 | 715 | 2.586686e-01 | 3.457102e+00 |1236.50%|   9.19%
  192s|  6200 |  4339 |  1162k| 187.3 |   279M |  37 |1740 |1093 |1988 | 725k|  2 |   8 | 715 | 2.586686e-01 | 3.457102e+00 |1236.50%|   9.20%
  194s|  6300 |  4393 |  1182k| 187.5 |   282M |  37 |1740 |1093 |2214 | 735k|  3 |   8 | 733 | 2.788428e-01 | 3.457102e+00 |1139.80%|   9.20%
  198s|  6400 |  4449 |  1197k| 187.0 |   284M |  37 |1740 |1093 |2044 | 745k|  2 |   8 | 747 | 2.844524e-01 | 3.457102e+00 |1115.35%|   9.28%
  200s|  6500 |  4503 |  1214k| 186.7 |   287M |  37 |1740 |1093 |2216 | 755k|  3 |   8 | 750 | 2.857117e-01 | 3.457102e+00 |1110.00%|   9.35%
  202s|  6600 |  4547 |  1229k| 186.1 |   289M |  37 |1740 |1093 |2032 | 764k|  6 |   8 | 756 | 3.187257e-01 | 3.457102e+00 | 984.66%|   9.38%
  205s|  6700 |  4597 |  1245k| 185.7 |   291M |  37 |1740 |1093 |2124 | 773k|  3 |   8 | 759 | 3.257729e-01 | 3.457102e+00 | 961.20%|   9.41%
  207s|  6800 |  4641 |  1258k| 184.9 |   293M |  37 |1740 |1093 |2000 | 781k|  2 |   8 | 761 | 3.501777e-01 | 3.457102e+00 | 887.24%|   9.46%
  210s|  6900 |  4693 |  1273k| 184.4 |   294M |  37 |1740 |1093 |1944 | 791k|  8 |   8 | 765 | 3.502112e-01 | 3.457102e+00 | 887.15%|   9.49%
  212s|  7000 |  4737 |  1289k| 184.0 |   297M |  37 |1740 |1093 |2045 | 800k|  3 |   8 | 768 | 3.547232e-01 | 3.457102e+00 | 874.59%|   9.54%
  215s|  7100 |  4787 |  1306k| 183.9 |   300M |  37 |1740 |1093 |1938 | 810k|  2 |   8 | 775 | 3.620627e-01 | 3.457102e+00 | 854.84%|   9.70%
  217s|  7200 |  4833 |  1321k| 183.4 |   302M |  37 |1740 |1093 |2225 | 818k|  8 |   8 | 778 | 3.620627e-01 | 3.457102e+00 | 854.84%|   9.76%
  220s|  7300 |  4881 |  1335k| 182.8 |   305M |  37 |1740 |1093 |2233 | 826k|  2 |   8 | 779 | 3.653128e-01 | 3.457102e+00 | 846.34%|   9.88%
 time | node  | left  |LP iter|LP it/n|mem/heur|mdpt |vars |cons |rows |cuts |sepa|confs|strbr|  dualbound   | primalbound  |  gap   | compl. 
  222s|  7400 |  4933 |  1349k| 182.3 |   307M |  37 |1740 |1093 |2057 | 834k| 10 |   8 | 785 | 3.661742e-01 | 3.457102e+00 | 844.11%|   9.93%
  225s|  7500 |  4987 |  1366k| 182.1 |   314M |  37 |1740 |1093 |1883 | 843k|  4 |   8 | 786 | 3.682163e-01 | 3.457102e+00 | 838.88%|   9.96%
  227s|  7600 |  5037 |  1379k| 181.4 |   316M |  37 |1740 |1093 |1956 | 850k|  8 |   8 | 787 | 3.703493e-01 | 3.457102e+00 | 833.47%|  10.19%
  230s|  7700 |  5101 |  1395k| 181.1 |   320M |  37 |1740 |1093 |2032 | 861k|  9 |   8 | 791 | 3.703824e-01 | 3.457102e+00 | 833.39%|  10.23%
  232s|  7800 |  5159 |  1411k| 180.8 |   322M |  37 |1740 |1093 |2284 | 872k|  2 |   9 | 796 | 3.703824e-01 | 3.457102e+00 | 833.39%|  10.25%
  235s|  7900 |  5205 |  1428k| 180.6 |   324M |  37 |1740 |1093 |2186 | 882k|  4 |   9 | 804 | 3.746948e-01 | 3.457102e+00 | 822.64%|  10.32%
  237s|  8000 |  5267 |  1446k| 180.6 |   327M |  37 |1740 |1093 |2274 | 892k|  8 |   9 | 817 | 3.748264e-01 | 3.457102e+00 | 822.32%|  10.36%
  240s|  8100 |  5301 |  1462k| 180.4 |   330M |  37 |1740 |1093 |2207 | 902k| 12 |   9 | 825 | 3.797295e-01 | 3.457102e+00 | 810.41%|  10.48%
* 240s|  8121 |  4134 |  1465k| 180.3 |    LP  |  37 |1740 |1093 |2295 | 904k| 10 |   9 | 825 | 3.797295e-01 | 2.741533e+00 | 621.97%|  12.53%
  242s|  8200 |  4171 |  1476k| 179.9 |   332M |  37 |1740 |1093 |2126 | 911k|  2 |   9 | 826 | 3.797295e-01 | 2.741533e+00 | 621.97%|  12.55%
  244s|  8300 |  4213 |  1489k| 179.3 |   332M |  37 |1740 |1093 |2087 | 918k|  1 |  10 | 827 | 3.797313e-01 | 2.741533e+00 | 621.97%|  12.60%
  247s|  8400 |  4255 |  1507k| 179.3 |   333M |  37 |1740 |1093 |2276 | 926k| 11 |  10 | 835 | 3.797446e-01 | 2.741533e+00 | 621.94%|  12.65%
  249s|  8500 |  4307 |  1521k| 178.9 |   333M |  37 |1740 |1093 |   0 | 935k|  0 |  11 | 835 | 3.797446e-01 | 2.741533e+00 | 621.94%|  12.84%
  251s|  8600 |  4343 |  1534k| 178.3 |   333M |  37 |1740 |1093 |2227 | 942k|  2 |  11 | 835 | 3.815129e-01 | 2.741533e+00 | 618.60%|  13.05%
  254s|  8700 |  4379 |  1549k| 177.9 |   333M |  37 |1740 |1093 |2070 | 951k|  2 |  11 | 837 | 3.850197e-01 | 2.741533e+00 | 612.05%|  13.12%
 time | node  | left  |LP iter|LP it/n|mem/heur|mdpt |vars |cons |rows |cuts |sepa|confs|strbr|  dualbound   | primalbound  |  gap   | compl. 
  256s|  8800 |  4407 |  1562k| 177.4 |   333M |  37 |1740 |1093 |2019 | 958k|  2 |  11 | 839 | 3.858328e-01 | 2.741533e+00 | 610.55%|  13.15%
  258s|  8900 |  4437 |  1578k| 177.2 |   335M |  37 |1740 |1093 |2035 | 966k|  2 |  11 | 840 | 3.878282e-01 | 2.741533e+00 | 606.89%|  13.20%
  261s|  9000 |  4487 |  1590k| 176.6 |   335M |  37 |1740 |1093 |2056 | 973k|  7 |  12 | 842 | 3.878583e-01 | 2.741533e+00 | 606.84%|  13.28%
  263s|  9100 |  4531 |  1603k| 176.1 |   336M |  37 |1740 |1093 |1874 | 982k|  2 |  12 | 846 | 3.915148e-01 | 2.741533e+00 | 600.24%|  13.42%
  265s|  9200 |  4575 |  1618k| 175.8 |   336M |  37 |1740 |1093 |1975 | 990k| 12 |  13 | 849 | 4.179901e-01 | 2.741533e+00 | 555.88%|  13.46%
  267s|  9300 |  4607 |  1631k| 175.3 |   336M |  37 |1740 |1093 |2210 | 996k|  8 |  13 | 851 | 4.179902e-01 | 2.741533e+00 | 555.88%|  13.59%
  269s|  9400 |  4635 |  1642k| 174.6 |   337M |  37 |1740 |1093 |1884 |1003k|  2 |  14 | 859 | 4.204359e-01 | 2.741533e+00 | 552.07%|  13.70%
  271s|  9500 |  4669 |  1654k| 174.1 |   341M |  37 |1740 |1093 |2107 |1009k|  3 |  14 | 862 | 4.204359e-01 | 2.741533e+00 | 552.07%|  13.79%
  273s|  9600 |  4715 |  1668k| 173.7 |   341M |  37 |1740 |1093 |1974 |1018k|  6 |  14 | 863 | 4.226583e-01 | 2.741533e+00 | 548.64%|  13.90%
  275s|  9700 |  4749 |  1681k| 173.3 |   342M |  37 |1740 |1093 |1868 |1024k|  2 |  14 | 870 | 4.297270e-01 | 2.741533e+00 | 537.97%|  14.13%
  278s|  9800 |  4795 |  1697k| 173.1 |   344M |  37 |1740 |1093 |2016 |1032k|  3 |  14 | 873 | 4.443302e-01 | 2.741533e+00 | 517.00%|  14.24%
  280s|  9900 |  4831 |  1712k| 172.9 |   344M |  37 |1740 |1093 |2222 |1040k|  3 |  14 | 883 | 4.453071e-01 | 2.741533e+00 | 515.65%|  14.32%
  282s| 10000 |  4871 |  1728k| 172.7 |   345M |  37 |1740 |1093 |2102 |1049k|  2 |  14 | 889 | 4.453071e-01 | 2.741533e+00 | 515.65%|  14.36%
  284s| 10100 |  4895 |  1739k| 172.1 |   345M |  38 |1740 |1093 |2144 |1056k|  5 |  14 | 890 | 4.511453e-01 | 2.741533e+00 | 507.68%|  14.50%
  286s| 10200 |  4939 |  1756k| 172.1 |   346M |  38 |1740 |1093 |2095 |1063k|  2 |  14 | 895 | 4.589499e-01 | 2.741533e+00 | 497.35%|  14.53%
 time | node  | left  |LP iter|LP it/n|mem/heur|mdpt |vars |cons |rows |cuts |sepa|confs|strbr|  dualbound   | primalbound  |  gap   | compl. 
  288s| 10300 |  4969 |  1771k| 171.9 |   347M |  40 |1740 |1093 |2092 |1071k|  3 |  14 | 896 | 4.596905e-01 | 2.741533e+00 | 496.39%|  14.62%
  290s| 10400 |  4995 |  1783k| 171.4 |   349M |  40 |1740 |1093 |1919 |1078k| 11 |  14 | 898 | 4.596932e-01 | 2.741533e+00 | 496.38%|  14.68%
  292s| 10500 |  5035 |  1795k| 170.9 |   349M |  40 |1740 |1093 |1959 |1086k|  2 |  14 | 899 | 4.596932e-01 | 2.741533e+00 | 496.38%|  14.68%
  294s| 10600 |  5051 |  1807k| 170.4 |   350M |  40 |1740 |1093 |1934 |1092k|  3 |  15 | 900 | 4.648824e-01 | 2.741533e+00 | 489.73%|  14.73%
  296s| 10700 |  5067 |  1818k| 169.8 |   353M |  40 |1740 |1093 |2142 |1098k|  3 |  15 | 901 | 4.877829e-01 | 2.741533e+00 | 462.04%|  14.79%
  298s| 10800 |  5089 |  1830k| 169.4 |   354M |  40 |1740 |1093 |2300 |1105k|  2 |  15 | 901 | 4.894352e-01 | 2.741533e+00 | 460.14%|  14.84%
  300s| 10900 |  5131 |  1843k| 169.1 |   356M |  40 |1740 |1093 |2012 |1112k|  4 |  15 | 903 | 4.894354e-01 | 2.741533e+00 | 460.14%|  14.88%

SCIP Status        : solving was interrupted [time limit reached]
Solving Time (sec) : 300.00
Solving Nodes      : 10910
Primal Bound       : +2.74153270740882e+00 (16 solutions)
Dual Bound         : +4.89435399371022e-01
Gap                : 460.14 %


--- Reading solution for model GAMS_MODEL
***
*** Solver did not provide marginals for model GAMS_MODEL
***
--- Executing after solve: elapsed 0:05:00.353
--- model.gms(3654) 4 Mb
--- model.gms(5319) 6 Mb
--- Putfile results /local/scratch/a/sgusev/repos/k_means/data/gams_scip_gdp.hull/no_mode/2026-02-16_00-58-07/original/results.dat
--- Putfile statresults /local/scratch/a/sgusev/repos/k_means/data/gams_scip_gdp.hull/no_mode/2026-02-16_00-58-07/original/resultsstat.dat
*** Status: Normal completion
--- Job model.gms Stop 02/16/26 01:03:08 elapsed 0:05:00.356
Original problem solved. Time taken: 300.98823618888855 seconds
Original objective value: 2.741532707408829
